isodistort-output
1.0
       89.4772109985         0.0000000000         0.0000000000
        0.0000000000         5.5923299789         0.0000000000
        0.0000000000         0.0000000000         3.9165399075
   Sr   Ti    O
   32   32   96
Direct
     0.312009990         0.000000000         0.000000000
     0.812009990         0.000000000         0.000000000
     0.343259990         0.500000000         0.000000000
     0.843259990         0.500000000         0.000000000
     0.374509990         0.000000000         0.000000000
     0.874509990         0.000000000         0.000000000
     0.405759990         0.500000000         0.000000000
     0.905759990         0.500000000         0.000000000
     0.437009990         0.000000000         0.000000000
     0.937009990         0.000000000         0.000000000
     0.468259990         0.500000000         0.000000000
     0.968259990         0.500000000         0.000000000
     0.499509990         0.000000000         0.000000000
     0.999509990         0.000000000         0.000000000
     0.530759990         0.500000000         0.000000000
     0.030759990         0.500000000         0.000000000
     0.562009990         0.000000000         0.000000000
     0.062009990         0.000000000         0.000000000
     0.593259990         0.500000000         0.000000000
     0.093259990         0.500000000         0.000000000
     0.624509990         0.000000000         0.000000000
     0.124509990         0.000000000         0.000000000
     0.655759990         0.500000000         0.000000000
     0.155759990         0.500000000         0.000000000
     0.687009990         0.000000000         0.000000000
     0.187009990         0.000000000         0.000000000
     0.718259990         0.500000000         0.000000000
     0.218259990         0.500000000         0.000000000
     0.749509990         0.000000000         0.000000000
     0.249509990         0.000000000         0.000000000
     0.780759990         0.500000000         0.000000000
     0.280759990         0.500000000         0.000000000
     0.343259990         0.000000000         0.500000000
     0.843259990         0.000000000         0.500000000
     0.374509990         0.500000000         0.500000000
     0.874509990         0.500000000         0.500000000
     0.405759990         0.000000000         0.500000000
     0.905759990         0.000000000         0.500000000
     0.437009990         0.500000000         0.500000000
     0.937009990         0.500000000         0.500000000
     0.468259990         0.000000000         0.500000000
     0.968259990         0.000000000         0.500000000
     0.499509990         0.500000000         0.500000000
     0.999509990         0.500000000         0.500000000
     0.530759990         0.000000000         0.500000000
     0.030759990         0.000000000         0.500000000
     0.562009990         0.500000000         0.500000000
     0.062009990         0.500000000         0.500000000
     0.593259990         0.000000000         0.500000000
     0.093259990         0.000000000         0.500000000
     0.624509990         0.500000000         0.500000000
     0.124509990         0.500000000         0.500000000
     0.655759990         0.000000000         0.500000000
     0.155759990         0.000000000         0.500000000
     0.687009990         0.500000000         0.500000000
     0.187009990         0.500000000         0.500000000
     0.718259990         0.000000000         0.500000000
     0.218259990         0.000000000         0.500000000
     0.749509990         0.500000000         0.500000000
     0.249509990         0.500000000         0.500000000
     0.780759990         0.000000000         0.500000000
     0.280759990         0.000000000         0.500000000
     0.812009990         0.500000000         0.500000000
     0.312009990         0.500000000         0.500000000
     0.327639997         0.250000000         0.500000000
     0.827639997         0.750000000         0.500000000
     0.358889997         0.750000000         0.500000000
     0.858889997         0.250000000         0.500000000
     0.390139997         0.250000000         0.500000000
     0.890139997         0.750000000         0.500000000
     0.421389997         0.750000000         0.500000000
     0.921389997         0.250000000         0.500000000
     0.452639997         0.250000000         0.500000000
     0.952639997         0.750000000         0.500000000
     0.483889997         0.750000000         0.500000000
     0.983889997         0.250000000         0.500000000
     0.515139997         0.250000000         0.500000000
     0.015139997         0.750000000         0.500000000
     0.546389997         0.750000000         0.500000000
     0.046389997         0.250000000         0.500000000
     0.577639997         0.250000000         0.500000000
     0.077639997         0.750000000         0.500000000
     0.608889997         0.750000000         0.500000000
     0.108889997         0.250000000         0.500000000
     0.640139997         0.250000000         0.500000000
     0.140139997         0.750000000         0.500000000
     0.671389997         0.750000000         0.500000000
     0.171389997         0.250000000         0.500000000
     0.702639997         0.250000000         0.500000000
     0.202639997         0.750000000         0.500000000
     0.733889997         0.750000000         0.500000000
     0.233889997         0.250000000         0.500000000
     0.765139997         0.250000000         0.500000000
     0.265139997         0.750000000         0.500000000
     0.796389997         0.750000000         0.500000000
     0.296389997         0.250000000         0.500000000
     0.827639997         0.250000000         0.500000000
     0.327639997         0.750000000         0.500000000
     0.858889997         0.750000000         0.500000000
     0.358889997         0.250000000         0.500000000
     0.890139997         0.250000000         0.500000000
     0.390139997         0.750000000         0.500000000
     0.921389997         0.750000000         0.500000000
     0.421389997         0.250000000         0.500000000
     0.952639997         0.250000000         0.500000000
     0.452639997         0.750000000         0.500000000
     0.983889997         0.750000000         0.500000000
     0.483889997         0.250000000         0.500000000
     0.015140000         0.250000000         0.500000000
     0.515139997         0.750000000         0.500000000
     0.046390001         0.750000000         0.500000000
     0.546389997         0.250000000         0.500000000
     0.077639997         0.250000000         0.500000000
     0.577639997         0.750000000         0.500000000
     0.108889997         0.750000000         0.500000000
     0.608889997         0.250000000         0.500000000
     0.140139997         0.250000000         0.500000000
     0.640139997         0.750000000         0.500000000
     0.171389997         0.750000000         0.500000000
     0.671389997         0.250000000         0.500000000
     0.202639997         0.250000000         0.500000000
     0.702639997         0.750000000         0.500000000
     0.233889997         0.750000000         0.500000000
     0.733889997         0.250000000         0.500000000
     0.265139997         0.250000000         0.500000000
     0.765139997         0.750000000         0.500000000
     0.296389997         0.750000000         0.500000000
     0.796389997         0.250000000         0.500000000
     0.343259990         0.000000000         0.000000000
     0.843259990         0.000000000         0.000000000
     0.374509990         0.500000000         0.000000000
     0.874509990         0.500000000         0.000000000
     0.405759990         0.000000000         0.000000000
     0.905759990         0.000000000         0.000000000
     0.437009990         0.500000000         0.000000000
     0.937009990         0.500000000         0.000000000
     0.468259990         0.000000000         0.000000000
     0.968259990         0.000000000         0.000000000
     0.499509990         0.500000000         0.000000000
     0.999509990         0.500000000         0.000000000
     0.530759990         0.000000000         0.000000000
     0.030759990         0.000000000         0.000000000
     0.562009990         0.500000000         0.000000000
     0.062009990         0.500000000         0.000000000
     0.593259990         0.000000000         0.000000000
     0.093259990         0.000000000         0.000000000
     0.624509990         0.500000000         0.000000000
     0.124509990         0.500000000         0.000000000
     0.655759990         0.000000000         0.000000000
     0.155759990         0.000000000         0.000000000
     0.687009990         0.500000000         0.000000000
     0.187009990         0.500000000         0.000000000
     0.718259990         0.000000000         0.000000000
     0.218259990         0.000000000         0.000000000
     0.749509990         0.500000000         0.000000000
     0.249509990         0.500000000         0.000000000
     0.780759990         0.000000000         0.000000000
     0.280759990         0.000000000         0.000000000
     0.812009990         0.500000000         0.000000000
     0.312009990         0.500000000         0.000000000
