isodistort-output
1.0
       89.4772109985         0.0000000000         0.0000000000
        0.0000000000         5.5923299789         0.0000000000
        0.0000000000         0.0000000000         3.9165399075
   Sr   Ti    O
   32   32   96
Direct
     0.999379992         0.866710007         0.000000000
     0.499379992         0.133289993         0.000000000
     0.061919998         0.909070015         0.000000000
     0.561919987         0.090930000         0.000000000
     0.124470003         0.952329993         0.000000000
     0.624469995         0.047669999         0.000000000
     0.187010005         0.996280015         0.000000000
     0.687009990         0.003720000         0.000000000
     0.249589995         0.039600000         0.000000000
     0.749589980         0.960399985         0.000000000
     0.312130004         0.082249999         0.000000000
     0.812129974         0.917750001         0.000000000
     0.374599993         0.131050006         0.000000000
     0.874599993         0.868950009         0.000000000
     0.436940014         0.171039999         0.000000000
     0.936940014         0.828960001         0.000000000
     0.030649999         0.387730002         0.000000000
     0.530650020         0.612269998         0.000000000
     0.093189999         0.430579990         0.000000000
     0.593190014         0.569419980         0.000000000
     0.155760005         0.474280000         0.000000000
     0.655759990         0.525720000         0.000000000
     0.218309999         0.518029988         0.000000000
     0.718309999         0.481970012         0.000000000
     0.280860007         0.561070025         0.000000000
     0.780860007         0.438929975         0.000000000
     0.343419999         0.603839993         0.000000000
     0.843420029         0.396160007         0.000000000
     0.405809999         0.673969984         0.000000000
     0.905809999         0.326030016         0.000000000
     0.468140006         0.653580010         0.000000000
     0.968140006         0.346419990         0.000000000
     0.031700000         0.903900027         0.500000000
     0.531700015         0.096100003         0.500000000
     0.094260000         0.946659982         0.500000000
     0.594259977         0.053339999         0.500000000
     0.156810001         0.990390003         0.500000000
     0.656809986         0.009610000         0.500000000
     0.219369993         0.034109998         0.500000000
     0.719370008         0.965889990         0.500000000
     0.281919986         0.077119999         0.500000000
     0.781919956         0.922879994         0.500000000
     0.344449997         0.119139999         0.500000000
     0.844449997         0.880859971         0.500000000
     0.406740010         0.160420001         0.500000000
     0.906740010         0.839579999         0.500000000
     0.469170004         0.136889994         0.500000000
     0.969169974         0.863110006         0.500000000
     0.062980004         0.425190002         0.500000000
     0.562979996         0.574810028         0.500000000
     0.125530005         0.468419999         0.500000000
     0.625530005         0.531579971         0.500000000
     0.188089997         0.512350023         0.500000000
     0.688089967         0.487649977         0.500000000
     0.250649989         0.555679977         0.500000000
     0.750649989         0.444320023         0.500000000
     0.313190013         0.598150015         0.500000000
     0.813189983         0.401849985         0.500000000
     0.375669986         0.640600026         0.500000000
     0.875669956         0.359399974         0.500000000
     0.437909991         0.653859973         0.500000000
     0.937909961         0.346140027         0.500000000
     0.500429988         0.616970003         0.500000000
     0.000429988         0.383029997         0.500000000
     0.017920000         0.670750022         0.500000000
     0.517920017         0.329249978         0.500000000
     0.080470003         0.713609993         0.500000000
     0.580470026         0.286390007         0.500000000
     0.143030003         0.757340014         0.500000000
     0.643029988         0.242659986         0.500000000
     0.205579996         0.801100016         0.500000000
     0.705579996         0.198899984         0.500000000
     0.268139988         0.843940020         0.500000000
     0.768139958         0.156059980         0.500000000
     0.330689996         0.884480000         0.500000000
     0.830690026         0.115520000         0.500000000
     0.393350005         0.900139987         0.500000000
     0.893350005         0.099859998         0.500000000
     0.455760002         0.863879979         0.500000000
     0.955760002         0.136120021         0.500000000
     0.518289983         0.822380006         0.500000000
     0.018289983         0.177619994         0.500000000
     0.580839992         0.779569983         0.500000000
     0.080839992         0.220430017         0.500000000
     0.643400013         0.735849977         0.500000000
     0.143400013         0.264150023         0.500000000
     0.705950022         0.692149997         0.500000000
     0.205950022         0.307850003         0.500000000
     0.768499970         0.649330020         0.500000000
     0.268499970         0.350669980         0.500000000
     0.830990016         0.609109998         0.500000000
     0.330990016         0.390890002         0.500000000
     0.893040001         0.593209982         0.500000000
     0.393040001         0.406790018         0.500000000
     0.955399990         0.628889978         0.500000000
     0.455399990         0.371110022         0.500000000
     0.049190000         0.192169994         0.500000000
     0.549189985         0.807829976         0.500000000
     0.111740001         0.235440001         0.500000000
     0.611739993         0.764559984         0.500000000
     0.174300000         0.279379994         0.500000000
     0.674300015         0.720620036         0.500000000
     0.236849993         0.322750002         0.500000000
     0.736850023         0.677250028         0.500000000
     0.299380004         0.365079999         0.500000000
     0.799380004         0.634920001         0.500000000
     0.361869991         0.401870012         0.500000000
     0.861869991         0.598129988         0.500000000
     0.424560010         0.382930011         0.500000000
     0.924560010         0.617069960         0.500000000
     0.487019986         0.343360007         0.500000000
     0.987020016         0.656639993         0.500000000
     0.549560010         0.300989985         0.500000000
     0.049560010         0.699010015         0.500000000
     0.612119973         0.257809997         0.500000000
     0.112119973         0.742190003         0.500000000
     0.674679995         0.213799998         0.500000000
     0.174679995         0.786199987         0.500000000
     0.737230003         0.170469999         0.500000000
     0.237230003         0.829530001         0.500000000
     0.799780011         0.128179997         0.500000000
     0.299780011         0.871819973         0.500000000
     0.862259984         0.091580003         0.500000000
     0.362259984         0.908419967         0.500000000
     0.924109995         0.110050000         0.500000000
     0.424109995         0.889949977         0.500000000
     0.986649990         0.149649993         0.500000000
     0.486649990         0.850350022         0.500000000
     0.033860002         0.936259985         0.000000000
     0.533860028         0.063740000         0.000000000
     0.096419998         0.979269981         0.000000000
     0.596419990         0.020730000         0.000000000
     0.158979997         0.023080001         0.000000000
     0.658980012         0.976920009         0.000000000
     0.221530005         0.066679999         0.000000000
     0.721530020         0.933319986         0.000000000
     0.284090012         0.109289996         0.000000000
     0.784090042         0.890709996         0.000000000
     0.346639991         0.148580000         0.000000000
     0.846639991         0.851419985         0.000000000
     0.408980012         0.144380003         0.000000000
     0.908980012         0.855620027         0.000000000
     0.471340001         0.105829999         0.000000000
     0.971340001         0.894169986         0.000000000
     0.065140001         0.457700014         0.000000000
     0.565140009         0.542299986         0.000000000
     0.127690002         0.501100004         0.000000000
     0.627690017         0.498899996         0.000000000
     0.190249994         0.545000017         0.000000000
     0.690249979         0.454999983         0.000000000
     0.252810001         0.588180006         0.000000000
     0.752810001         0.411819994         0.000000000
     0.315349996         0.629819989         0.000000000
     0.815349996         0.370180011         0.000000000
     0.377819985         0.660059988         0.000000000
     0.877820015         0.339940012         0.000000000
     0.440100014         0.625949979         0.000000000
     0.940100014         0.374050021         0.000000000
     0.502600014         0.584990025         0.000000000
     0.002600014         0.415009975         0.000000000
